(set-option :produce-models true)
(set-logic QF_LRA)
(set-info :notes | Strip-packing problem.|)
(declare-fun x0 () Real)
(declare-fun y0 () Real)
(declare-fun x1 () Real)
(declare-fun y1 () Real)
(declare-fun x2 () Real)
(declare-fun y2 () Real)
(declare-fun x3 () Real)
(declare-fun y3 () Real)
(declare-fun x4 () Real)
(declare-fun y4 () Real)
(declare-fun x5 () Real)
(declare-fun y5 () Real)
(declare-fun x6 () Real)
(declare-fun y6 () Real)
(declare-fun x7 () Real)
(declare-fun y7 () Real)
(declare-fun x8 () Real)
(declare-fun y8 () Real)
(declare-fun x9 () Real)
(declare-fun y9 () Real)
(declare-fun x10 () Real)
(declare-fun y10 () Real)
(declare-fun x11 () Real)
(declare-fun y11 () Real)
(declare-fun x12 () Real)
(declare-fun y12 () Real)
(declare-fun x13 () Real)
(declare-fun y13 () Real)
(declare-fun x14 () Real)
(declare-fun y14 () Real)
(declare-fun z () Real)
(declare-fun c () Real)
(assert (and (= c z) (and (>= x0 0) 
(and (>= y0 0) 
(and (>= x1 0) 
(and (>= y1 0) 
(and (>= x2 0) 
(and (>= y2 0) 
(and (>= x3 0) 
(and (>= y3 0) 
(and (>= x4 0) 
(and (>= y4 0) 
(and (>= x5 0) 
(and (>= y5 0) 
(and (>= x6 0) 
(and (>= y6 0) 
(and (>= x7 0) 
(and (>= y7 0) 
(and (>= x8 0) 
(and (>= y8 0) 
(and (>= x9 0) 
(and (>= y9 0) 
(and (>= x10 0) 
(and (>= y10 0) 
(and (>= x11 0) 
(and (>= y11 0) 
(and (>= x12 0) 
(and (>= y12 0) 
(and (>= x13 0) 
(and (>= y13 0) 
(and (>= x14 0) 
(and (>= y14 0) 
(and (>= z 0) 
(and (>= c 0) 
(and (<= (+ x0 0.1616373953) z) 
(and (<= 0.9089724987 y0) 
(and (<= y0 1.9364916731) 
(and (<= x0 (- 2.8424049855 0.1616373953)) 
(and (>= x0 0) 
(and (<= (+ x1 0.3179954394) z) 
(and (<= 0.9083973919 y1) 
(and (<= y1 1.9364916731) 
(and (<= x1 (- 2.8424049855 0.3179954394)) 
(and (>= x1 0) 
(and (<= (+ x2 0.471981378) z) 
(and (<= 0.8921433167 y2) 
(and (<= y2 1.9364916731) 
(and (<= x2 (- 2.8424049855 0.471981378)) 
(and (>= x2 0) 
(and (<= (+ x3 0.9248473678) z) 
(and (<= 0.7114140173 y3) 
(and (<= y3 1.9364916731) 
(and (<= x3 (- 2.8424049855 0.9248473678)) 
(and (>= x3 0) 
(and (<= (+ x4 0.3689620347) z) 
(and (<= 0.6307701659 y4) 
(and (<= y4 1.9364916731) 
(and (<= x4 (- 2.8424049855 0.3689620347)) 
(and (>= x4 0) 
(and (<= (+ x5 0.7180754771) z) 
(and (<= 0.6214271562 y5) 
(and (<= y5 1.9364916731) 
(and (<= x5 (- 2.8424049855 0.7180754771)) 
(and (>= x5 0) 
(and (<= (+ x6 0.2638684629) z) 
(and (<= 0.5561225553 y6) 
(and (<= y6 1.9364916731) 
(and (<= x6 (- 2.8424049855 0.2638684629)) 
(and (>= x6 0) 
(and (<= (+ x7 0.1654497114) z) 
(and (<= 0.4849822742 y7) 
(and (<= y7 1.9364916731) 
(and (<= x7 (- 2.8424049855 0.1654497114)) 
(and (>= x7 0) 
(and (<= (+ x8 0.965943405) z) 
(and (<= 0.473336625 y8) 
(and (<= y8 1.9364916731) 
(and (<= x8 (- 2.8424049855 0.965943405)) 
(and (>= x8 0) 
(and (<= (+ x9 0.1731135354) z) 
(and (<= 0.4373756545 y9) 
(and (<= y9 1.9364916731) 
(and (<= x9 (- 2.8424049855 0.1731135354)) 
(and (>= x9 0) 
(and (<= (+ x10 0.3608089335) z) 
(and (<= 0.4269202354 y10) 
(and (<= y10 1.9364916731) 
(and (<= x10 (- 2.8424049855 0.3608089335)) 
(and (>= x10 0) 
(and (<= (+ x11 0.3170500662) z) 
(and (<= 0.3993316383 y11) 
(and (<= y11 1.9364916731) 
(and (<= x11 (- 2.8424049855 0.3170500662)) 
(and (>= x11 0) 
(and (<= (+ x12 0.6388929363) z) 
(and (<= 0.2950471086 y12) 
(and (<= y12 1.9364916731) 
(and (<= x12 (- 2.8424049855 0.6388929363)) 
(and (>= x12 0) 
(and (<= (+ x13 0.3821836511) z) 
(and (<= 0.1580800954 y13) 
(and (<= y13 1.9364916731) 
(and (<= x13 (- 2.8424049855 0.3821836511)) 
(and (>= x13 0) 
(and (<= (+ x14 0.0403839365) z) 
(and (<= 0.0287440352 y14) 
(and (<= y14 1.9364916731) 
(and (<= x14 (- 2.8424049855 0.0403839365)) 
(and (>= x14 0) 
(and (<= c 2.8424049855) 
(and (or (<= (+ x0 0.1616373953) x1) (or (<= (+ x1 0.3179954394) x0) (or (>= (- y0 0.9089724987) y1) (or (>= (- y1 0.9083973919) y0))))) 
(and (or (<= (+ x0 0.1616373953) x2) (or (<= (+ x2 0.471981378) x0) (or (>= (- y0 0.9089724987) y2) (or (>= (- y2 0.8921433167) y0))))) 
(and (or (<= (+ x0 0.1616373953) x3) (or (<= (+ x3 0.9248473678) x0) (or (>= (- y0 0.9089724987) y3) (or (>= (- y3 0.7114140173) y0))))) 
(and (or (<= (+ x0 0.1616373953) x4) (or (<= (+ x4 0.3689620347) x0) (or (>= (- y0 0.9089724987) y4) (or (>= (- y4 0.6307701659) y0))))) 
(and (or (<= (+ x0 0.1616373953) x5) (or (<= (+ x5 0.7180754771) x0) (or (>= (- y0 0.9089724987) y5) (or (>= (- y5 0.6214271562) y0))))) 
(and (or (<= (+ x0 0.1616373953) x6) (or (<= (+ x6 0.2638684629) x0) (or (>= (- y0 0.9089724987) y6) (or (>= (- y6 0.5561225553) y0))))) 
(and (or (<= (+ x0 0.1616373953) x7) (or (<= (+ x7 0.1654497114) x0) (or (>= (- y0 0.9089724987) y7) (or (>= (- y7 0.4849822742) y0))))) 
(and (or (<= (+ x0 0.1616373953) x8) (or (<= (+ x8 0.965943405) x0) (or (>= (- y0 0.9089724987) y8) (or (>= (- y8 0.473336625) y0))))) 
(and (or (<= (+ x0 0.1616373953) x9) (or (<= (+ x9 0.1731135354) x0) (or (>= (- y0 0.9089724987) y9) (or (>= (- y9 0.4373756545) y0))))) 
(and (or (<= (+ x0 0.1616373953) x10) (or (<= (+ x10 0.3608089335) x0) (or (>= (- y0 0.9089724987) y10) (or (>= (- y10 0.4269202354) y0))))) 
(and (or (<= (+ x0 0.1616373953) x11) (or (<= (+ x11 0.3170500662) x0) (or (>= (- y0 0.9089724987) y11) (or (>= (- y11 0.3993316383) y0))))) 
(and (or (<= (+ x0 0.1616373953) x12) (or (<= (+ x12 0.6388929363) x0) (or (>= (- y0 0.9089724987) y12) (or (>= (- y12 0.2950471086) y0))))) 
(and (or (<= (+ x0 0.1616373953) x13) (or (<= (+ x13 0.3821836511) x0) (or (>= (- y0 0.9089724987) y13) (or (>= (- y13 0.1580800954) y0))))) 
(and (or (<= (+ x0 0.1616373953) x14) (or (<= (+ x14 0.0403839365) x0) (or (>= (- y0 0.9089724987) y14) (or (>= (- y14 0.0287440352) y0))))) 
(and (or (<= (+ x1 0.3179954394) x2) (or (<= (+ x2 0.471981378) x1) (or (>= (- y1 0.9083973919) y2) (or (>= (- y2 0.8921433167) y1))))) 
(and (or (<= (+ x1 0.3179954394) x3) (or (<= (+ x3 0.9248473678) x1) (or (>= (- y1 0.9083973919) y3) (or (>= (- y3 0.7114140173) y1))))) 
(and (or (<= (+ x1 0.3179954394) x4) (or (<= (+ x4 0.3689620347) x1) (or (>= (- y1 0.9083973919) y4) (or (>= (- y4 0.6307701659) y1))))) 
(and (or (<= (+ x1 0.3179954394) x5) (or (<= (+ x5 0.7180754771) x1) (or (>= (- y1 0.9083973919) y5) (or (>= (- y5 0.6214271562) y1))))) 
(and (or (<= (+ x1 0.3179954394) x6) (or (<= (+ x6 0.2638684629) x1) (or (>= (- y1 0.9083973919) y6) (or (>= (- y6 0.5561225553) y1))))) 
(and (or (<= (+ x1 0.3179954394) x7) (or (<= (+ x7 0.1654497114) x1) (or (>= (- y1 0.9083973919) y7) (or (>= (- y7 0.4849822742) y1))))) 
(and (or (<= (+ x1 0.3179954394) x8) (or (<= (+ x8 0.965943405) x1) (or (>= (- y1 0.9083973919) y8) (or (>= (- y8 0.473336625) y1))))) 
(and (or (<= (+ x1 0.3179954394) x9) (or (<= (+ x9 0.1731135354) x1) (or (>= (- y1 0.9083973919) y9) (or (>= (- y9 0.4373756545) y1))))) 
(and (or (<= (+ x1 0.3179954394) x10) (or (<= (+ x10 0.3608089335) x1) (or (>= (- y1 0.9083973919) y10) (or (>= (- y10 0.4269202354) y1))))) 
(and (or (<= (+ x1 0.3179954394) x11) (or (<= (+ x11 0.3170500662) x1) (or (>= (- y1 0.9083973919) y11) (or (>= (- y11 0.3993316383) y1))))) 
(and (or (<= (+ x1 0.3179954394) x12) (or (<= (+ x12 0.6388929363) x1) (or (>= (- y1 0.9083973919) y12) (or (>= (- y12 0.2950471086) y1))))) 
(and (or (<= (+ x1 0.3179954394) x13) (or (<= (+ x13 0.3821836511) x1) (or (>= (- y1 0.9083973919) y13) (or (>= (- y13 0.1580800954) y1))))) 
(and (or (<= (+ x1 0.3179954394) x14) (or (<= (+ x14 0.0403839365) x1) (or (>= (- y1 0.9083973919) y14) (or (>= (- y14 0.0287440352) y1))))) 
(and (or (<= (+ x2 0.471981378) x3) (or (<= (+ x3 0.9248473678) x2) (or (>= (- y2 0.8921433167) y3) (or (>= (- y3 0.7114140173) y2))))) 
(and (or (<= (+ x2 0.471981378) x4) (or (<= (+ x4 0.3689620347) x2) (or (>= (- y2 0.8921433167) y4) (or (>= (- y4 0.6307701659) y2))))) 
(and (or (<= (+ x2 0.471981378) x5) (or (<= (+ x5 0.7180754771) x2) (or (>= (- y2 0.8921433167) y5) (or (>= (- y5 0.6214271562) y2))))) 
(and (or (<= (+ x2 0.471981378) x6) (or (<= (+ x6 0.2638684629) x2) (or (>= (- y2 0.8921433167) y6) (or (>= (- y6 0.5561225553) y2))))) 
(and (or (<= (+ x2 0.471981378) x7) (or (<= (+ x7 0.1654497114) x2) (or (>= (- y2 0.8921433167) y7) (or (>= (- y7 0.4849822742) y2))))) 
(and (or (<= (+ x2 0.471981378) x8) (or (<= (+ x8 0.965943405) x2) (or (>= (- y2 0.8921433167) y8) (or (>= (- y8 0.473336625) y2))))) 
(and (or (<= (+ x2 0.471981378) x9) (or (<= (+ x9 0.1731135354) x2) (or (>= (- y2 0.8921433167) y9) (or (>= (- y9 0.4373756545) y2))))) 
(and (or (<= (+ x2 0.471981378) x10) (or (<= (+ x10 0.3608089335) x2) (or (>= (- y2 0.8921433167) y10) (or (>= (- y10 0.4269202354) y2))))) 
(and (or (<= (+ x2 0.471981378) x11) (or (<= (+ x11 0.3170500662) x2) (or (>= (- y2 0.8921433167) y11) (or (>= (- y11 0.3993316383) y2))))) 
(and (or (<= (+ x2 0.471981378) x12) (or (<= (+ x12 0.6388929363) x2) (or (>= (- y2 0.8921433167) y12) (or (>= (- y12 0.2950471086) y2))))) 
(and (or (<= (+ x2 0.471981378) x13) (or (<= (+ x13 0.3821836511) x2) (or (>= (- y2 0.8921433167) y13) (or (>= (- y13 0.1580800954) y2))))) 
(and (or (<= (+ x2 0.471981378) x14) (or (<= (+ x14 0.0403839365) x2) (or (>= (- y2 0.8921433167) y14) (or (>= (- y14 0.0287440352) y2))))) 
(and (or (<= (+ x3 0.9248473678) x4) (or (<= (+ x4 0.3689620347) x3) (or (>= (- y3 0.7114140173) y4) (or (>= (- y4 0.6307701659) y3))))) 
(and (or (<= (+ x3 0.9248473678) x5) (or (<= (+ x5 0.7180754771) x3) (or (>= (- y3 0.7114140173) y5) (or (>= (- y5 0.6214271562) y3))))) 
(and (or (<= (+ x3 0.9248473678) x6) (or (<= (+ x6 0.2638684629) x3) (or (>= (- y3 0.7114140173) y6) (or (>= (- y6 0.5561225553) y3))))) 
(and (or (<= (+ x3 0.9248473678) x7) (or (<= (+ x7 0.1654497114) x3) (or (>= (- y3 0.7114140173) y7) (or (>= (- y7 0.4849822742) y3))))) 
(and (or (<= (+ x3 0.9248473678) x8) (or (<= (+ x8 0.965943405) x3) (or (>= (- y3 0.7114140173) y8) (or (>= (- y8 0.473336625) y3))))) 
(and (or (<= (+ x3 0.9248473678) x9) (or (<= (+ x9 0.1731135354) x3) (or (>= (- y3 0.7114140173) y9) (or (>= (- y9 0.4373756545) y3))))) 
(and (or (<= (+ x3 0.9248473678) x10) (or (<= (+ x10 0.3608089335) x3) (or (>= (- y3 0.7114140173) y10) (or (>= (- y10 0.4269202354) y3))))) 
(and (or (<= (+ x3 0.9248473678) x11) (or (<= (+ x11 0.3170500662) x3) (or (>= (- y3 0.7114140173) y11) (or (>= (- y11 0.3993316383) y3))))) 
(and (or (<= (+ x3 0.9248473678) x12) (or (<= (+ x12 0.6388929363) x3) (or (>= (- y3 0.7114140173) y12) (or (>= (- y12 0.2950471086) y3))))) 
(and (or (<= (+ x3 0.9248473678) x13) (or (<= (+ x13 0.3821836511) x3) (or (>= (- y3 0.7114140173) y13) (or (>= (- y13 0.1580800954) y3))))) 
(and (or (<= (+ x3 0.9248473678) x14) (or (<= (+ x14 0.0403839365) x3) (or (>= (- y3 0.7114140173) y14) (or (>= (- y14 0.0287440352) y3))))) 
(and (or (<= (+ x4 0.3689620347) x5) (or (<= (+ x5 0.7180754771) x4) (or (>= (- y4 0.6307701659) y5) (or (>= (- y5 0.6214271562) y4))))) 
(and (or (<= (+ x4 0.3689620347) x6) (or (<= (+ x6 0.2638684629) x4) (or (>= (- y4 0.6307701659) y6) (or (>= (- y6 0.5561225553) y4))))) 
(and (or (<= (+ x4 0.3689620347) x7) (or (<= (+ x7 0.1654497114) x4) (or (>= (- y4 0.6307701659) y7) (or (>= (- y7 0.4849822742) y4))))) 
(and (or (<= (+ x4 0.3689620347) x8) (or (<= (+ x8 0.965943405) x4) (or (>= (- y4 0.6307701659) y8) (or (>= (- y8 0.473336625) y4))))) 
(and (or (<= (+ x4 0.3689620347) x9) (or (<= (+ x9 0.1731135354) x4) (or (>= (- y4 0.6307701659) y9) (or (>= (- y9 0.4373756545) y4))))) 
(and (or (<= (+ x4 0.3689620347) x10) (or (<= (+ x10 0.3608089335) x4) (or (>= (- y4 0.6307701659) y10) (or (>= (- y10 0.4269202354) y4))))) 
(and (or (<= (+ x4 0.3689620347) x11) (or (<= (+ x11 0.3170500662) x4) (or (>= (- y4 0.6307701659) y11) (or (>= (- y11 0.3993316383) y4))))) 
(and (or (<= (+ x4 0.3689620347) x12) (or (<= (+ x12 0.6388929363) x4) (or (>= (- y4 0.6307701659) y12) (or (>= (- y12 0.2950471086) y4))))) 
(and (or (<= (+ x4 0.3689620347) x13) (or (<= (+ x13 0.3821836511) x4) (or (>= (- y4 0.6307701659) y13) (or (>= (- y13 0.1580800954) y4))))) 
(and (or (<= (+ x4 0.3689620347) x14) (or (<= (+ x14 0.0403839365) x4) (or (>= (- y4 0.6307701659) y14) (or (>= (- y14 0.0287440352) y4))))) 
(and (or (<= (+ x5 0.7180754771) x6) (or (<= (+ x6 0.2638684629) x5) (or (>= (- y5 0.6214271562) y6) (or (>= (- y6 0.5561225553) y5))))) 
(and (or (<= (+ x5 0.7180754771) x7) (or (<= (+ x7 0.1654497114) x5) (or (>= (- y5 0.6214271562) y7) (or (>= (- y7 0.4849822742) y5))))) 
(and (or (<= (+ x5 0.7180754771) x8) (or (<= (+ x8 0.965943405) x5) (or (>= (- y5 0.6214271562) y8) (or (>= (- y8 0.473336625) y5))))) 
(and (or (<= (+ x5 0.7180754771) x9) (or (<= (+ x9 0.1731135354) x5) (or (>= (- y5 0.6214271562) y9) (or (>= (- y9 0.4373756545) y5))))) 
(and (or (<= (+ x5 0.7180754771) x10) (or (<= (+ x10 0.3608089335) x5) (or (>= (- y5 0.6214271562) y10) (or (>= (- y10 0.4269202354) y5))))) 
(and (or (<= (+ x5 0.7180754771) x11) (or (<= (+ x11 0.3170500662) x5) (or (>= (- y5 0.6214271562) y11) (or (>= (- y11 0.3993316383) y5))))) 
(and (or (<= (+ x5 0.7180754771) x12) (or (<= (+ x12 0.6388929363) x5) (or (>= (- y5 0.6214271562) y12) (or (>= (- y12 0.2950471086) y5))))) 
(and (or (<= (+ x5 0.7180754771) x13) (or (<= (+ x13 0.3821836511) x5) (or (>= (- y5 0.6214271562) y13) (or (>= (- y13 0.1580800954) y5))))) 
(and (or (<= (+ x5 0.7180754771) x14) (or (<= (+ x14 0.0403839365) x5) (or (>= (- y5 0.6214271562) y14) (or (>= (- y14 0.0287440352) y5))))) 
(and (or (<= (+ x6 0.2638684629) x7) (or (<= (+ x7 0.1654497114) x6) (or (>= (- y6 0.5561225553) y7) (or (>= (- y7 0.4849822742) y6))))) 
(and (or (<= (+ x6 0.2638684629) x8) (or (<= (+ x8 0.965943405) x6) (or (>= (- y6 0.5561225553) y8) (or (>= (- y8 0.473336625) y6))))) 
(and (or (<= (+ x6 0.2638684629) x9) (or (<= (+ x9 0.1731135354) x6) (or (>= (- y6 0.5561225553) y9) (or (>= (- y9 0.4373756545) y6))))) 
(and (or (<= (+ x6 0.2638684629) x10) (or (<= (+ x10 0.3608089335) x6) (or (>= (- y6 0.5561225553) y10) (or (>= (- y10 0.4269202354) y6))))) 
(and (or (<= (+ x6 0.2638684629) x11) (or (<= (+ x11 0.3170500662) x6) (or (>= (- y6 0.5561225553) y11) (or (>= (- y11 0.3993316383) y6))))) 
(and (or (<= (+ x6 0.2638684629) x12) (or (<= (+ x12 0.6388929363) x6) (or (>= (- y6 0.5561225553) y12) (or (>= (- y12 0.2950471086) y6))))) 
(and (or (<= (+ x6 0.2638684629) x13) (or (<= (+ x13 0.3821836511) x6) (or (>= (- y6 0.5561225553) y13) (or (>= (- y13 0.1580800954) y6))))) 
(and (or (<= (+ x6 0.2638684629) x14) (or (<= (+ x14 0.0403839365) x6) (or (>= (- y6 0.5561225553) y14) (or (>= (- y14 0.0287440352) y6))))) 
(and (or (<= (+ x7 0.1654497114) x8) (or (<= (+ x8 0.965943405) x7) (or (>= (- y7 0.4849822742) y8) (or (>= (- y8 0.473336625) y7))))) 
(and (or (<= (+ x7 0.1654497114) x9) (or (<= (+ x9 0.1731135354) x7) (or (>= (- y7 0.4849822742) y9) (or (>= (- y9 0.4373756545) y7))))) 
(and (or (<= (+ x7 0.1654497114) x10) (or (<= (+ x10 0.3608089335) x7) (or (>= (- y7 0.4849822742) y10) (or (>= (- y10 0.4269202354) y7))))) 
(and (or (<= (+ x7 0.1654497114) x11) (or (<= (+ x11 0.3170500662) x7) (or (>= (- y7 0.4849822742) y11) (or (>= (- y11 0.3993316383) y7))))) 
(and (or (<= (+ x7 0.1654497114) x12) (or (<= (+ x12 0.6388929363) x7) (or (>= (- y7 0.4849822742) y12) (or (>= (- y12 0.2950471086) y7))))) 
(and (or (<= (+ x7 0.1654497114) x13) (or (<= (+ x13 0.3821836511) x7) (or (>= (- y7 0.4849822742) y13) (or (>= (- y13 0.1580800954) y7))))) 
(and (or (<= (+ x7 0.1654497114) x14) (or (<= (+ x14 0.0403839365) x7) (or (>= (- y7 0.4849822742) y14) (or (>= (- y14 0.0287440352) y7))))) 
(and (or (<= (+ x8 0.965943405) x9) (or (<= (+ x9 0.1731135354) x8) (or (>= (- y8 0.473336625) y9) (or (>= (- y9 0.4373756545) y8))))) 
(and (or (<= (+ x8 0.965943405) x10) (or (<= (+ x10 0.3608089335) x8) (or (>= (- y8 0.473336625) y10) (or (>= (- y10 0.4269202354) y8))))) 
(and (or (<= (+ x8 0.965943405) x11) (or (<= (+ x11 0.3170500662) x8) (or (>= (- y8 0.473336625) y11) (or (>= (- y11 0.3993316383) y8))))) 
(and (or (<= (+ x8 0.965943405) x12) (or (<= (+ x12 0.6388929363) x8) (or (>= (- y8 0.473336625) y12) (or (>= (- y12 0.2950471086) y8))))) 
(and (or (<= (+ x8 0.965943405) x13) (or (<= (+ x13 0.3821836511) x8) (or (>= (- y8 0.473336625) y13) (or (>= (- y13 0.1580800954) y8))))) 
(and (or (<= (+ x8 0.965943405) x14) (or (<= (+ x14 0.0403839365) x8) (or (>= (- y8 0.473336625) y14) (or (>= (- y14 0.0287440352) y8))))) 
(and (or (<= (+ x9 0.1731135354) x10) (or (<= (+ x10 0.3608089335) x9) (or (>= (- y9 0.4373756545) y10) (or (>= (- y10 0.4269202354) y9))))) 
(and (or (<= (+ x9 0.1731135354) x11) (or (<= (+ x11 0.3170500662) x9) (or (>= (- y9 0.4373756545) y11) (or (>= (- y11 0.3993316383) y9))))) 
(and (or (<= (+ x9 0.1731135354) x12) (or (<= (+ x12 0.6388929363) x9) (or (>= (- y9 0.4373756545) y12) (or (>= (- y12 0.2950471086) y9))))) 
(and (or (<= (+ x9 0.1731135354) x13) (or (<= (+ x13 0.3821836511) x9) (or (>= (- y9 0.4373756545) y13) (or (>= (- y13 0.1580800954) y9))))) 
(and (or (<= (+ x9 0.1731135354) x14) (or (<= (+ x14 0.0403839365) x9) (or (>= (- y9 0.4373756545) y14) (or (>= (- y14 0.0287440352) y9))))) 
(and (or (<= (+ x10 0.3608089335) x11) (or (<= (+ x11 0.3170500662) x10) (or (>= (- y10 0.4269202354) y11) (or (>= (- y11 0.3993316383) y10))))) 
(and (or (<= (+ x10 0.3608089335) x12) (or (<= (+ x12 0.6388929363) x10) (or (>= (- y10 0.4269202354) y12) (or (>= (- y12 0.2950471086) y10))))) 
(and (or (<= (+ x10 0.3608089335) x13) (or (<= (+ x13 0.3821836511) x10) (or (>= (- y10 0.4269202354) y13) (or (>= (- y13 0.1580800954) y10))))) 
(and (or (<= (+ x10 0.3608089335) x14) (or (<= (+ x14 0.0403839365) x10) (or (>= (- y10 0.4269202354) y14) (or (>= (- y14 0.0287440352) y10))))) 
(and (or (<= (+ x11 0.3170500662) x12) (or (<= (+ x12 0.6388929363) x11) (or (>= (- y11 0.3993316383) y12) (or (>= (- y12 0.2950471086) y11))))) 
(and (or (<= (+ x11 0.3170500662) x13) (or (<= (+ x13 0.3821836511) x11) (or (>= (- y11 0.3993316383) y13) (or (>= (- y13 0.1580800954) y11))))) 
(and (or (<= (+ x11 0.3170500662) x14) (or (<= (+ x14 0.0403839365) x11) (or (>= (- y11 0.3993316383) y14) (or (>= (- y14 0.0287440352) y11))))) 
(and (or (<= (+ x12 0.6388929363) x13) (or (<= (+ x13 0.3821836511) x12) (or (>= (- y12 0.2950471086) y13) (or (>= (- y13 0.1580800954) y12))))) 
(and (or (<= (+ x12 0.6388929363) x14) (or (<= (+ x14 0.0403839365) x12) (or (>= (- y12 0.2950471086) y14) (or (>= (- y14 0.0287440352) y12))))) 
(and (or (<= (+ x13 0.3821836511) x14) (or (<= (+ x14 0.0403839365) x13) (or (>= (- y13 0.1580800954) y14) (or (>= (- y14 0.0287440352) y13))))) )))))))))))))))))))))))))))))))))))))))))))))))))))))))))))))))))))))))))))))))))))))))))))))))))))))))))))))))))))))))))))))))))))))))))))))))))))))))))))))))))))))))))))))))))))))))))))))))))))))))))))))))))))))))
(minimize c)
(check-sat)
(get-objectives)
(exit)
